p edge 17 40
e 1 2
e 1 7
e 1 8
e 1 11
e 1 13
e 1 14
e 2 3
e 2 4
e 2 5
e 2 8
e 2 9
e 2 11
e 2 12
e 2 13
e 3 6
e 3 7
e 3 8
e 3 15
e 3 17
e 4 6
e 4 7
e 4 9
e 4 10
e 4 12
e 4 14
e 5 10
e 5 16
e 6 7
e 6 8
e 7 15
e 8 16
e 9 11
e 9 12
e 10 11
e 10 14
e 11 13
e 12 14
e 13 14
e 13 17
e 15 17
